c 169_3_checker_6cl.cnf
c
c field = 169
c formula set type = 3_checker_6cl
c
p cnf 6 34
332 
334 
338 
-341 
-330 
-342 
333 
335 
339 
-340 
-331 
-343 
334 
338 
340 
-333 
-330 
-342 
335 
339 
341 
-332 
-331 
-343 
334 
338 
340 
-343 
-332 
-344 
335 
339 
341 
-342 
-333 
-345 
338 
340 
342 
-335 
-332 
-344 
339 
341 
343 
-334 
-333 
-345 
338 
340 
342 
-345 
-334 
-346 
339 
341 
343 
-344 
-335 
-347 
246 
276 
306 
-217 
-186 
-366 
247 
277 
307 
-216 
-187 
-367 
246 
276 
306 
-367 
-216 
-396 
247 
277 
307 
-366 
-217 
-397 
276 
306 
366 
-247 
-216 
-396 
277 
307 
367 
-246 
-217 
-397 
276 
306 
366 
-397 
-246 
-426 
277 
307 
367 
-396 
-247 
-427 
306 
366 
396 
-277 
-246 
-426 
307 
367 
397 
-276 
-247 
-427 
272 
304 
368 
-401 
-240 
-432 
273 
305 
369 
-400 
-241 
-433 
304 
368 
400 
-273 
-240 
-432 
305 
369 
401 
-272 
-241 
-433 
252 
280 
308 
-225 
-196 
-364 
253 
281 
309 
-224 
-197 
-365 
252 
280 
308 
-365 
-224 
-392 
253 
281 
309 
-364 
-225 
-393 
280 
308 
364 
-253 
-224 
-392 
281 
309 
365 
-252 
-225 
-393 
280 
308 
364 
-393 
-252 
-420 
281 
309 
365 
-392 
-253 
-421 
308 
364 
392 
-281 
-252 
-420 
309 
365 
393 
-280 
-253 
-421 
